c File: flat50_3_0.col
c
c SOURCE: Joseph Culberson (joe@cs.ualberta.ca)
c DESCRIPTION: Quasi-random coloring problem
c              generated with flatness = 0
c                             probability = 0.139
c                             known coloring = 3
c                             random seed = 1198
c              Creation Date:  Tue Jun  9 12:03:32 1998
c Maximum degree = 8 Minimum degree = 1
c p edge 50 115
c cnf created by edge2cnf
p cnf 150 545
-1 -2 0
-1 -3 0
-2 -3 0
1 2 3 0
-4 -5 0
-4 -6 0
-5 -6 0
4 5 6 0
-7 -8 0
-7 -9 0
-8 -9 0
7 8 9 0
-10 -11 0
-10 -12 0
-11 -12 0
10 11 12 0
-13 -14 0
-13 -15 0
-14 -15 0
13 14 15 0
-16 -17 0
-16 -18 0
-17 -18 0
16 17 18 0
-19 -20 0
-19 -21 0
-20 -21 0
19 20 21 0
-22 -23 0
-22 -24 0
-23 -24 0
22 23 24 0
-25 -26 0
-25 -27 0
-26 -27 0
25 26 27 0
-28 -29 0
-28 -30 0
-29 -30 0
28 29 30 0
-31 -32 0
-31 -33 0
-32 -33 0
31 32 33 0
-34 -35 0
-34 -36 0
-35 -36 0
34 35 36 0
-37 -38 0
-37 -39 0
-38 -39 0
37 38 39 0
-40 -41 0
-40 -42 0
-41 -42 0
40 41 42 0
-43 -44 0
-43 -45 0
-44 -45 0
43 44 45 0
-46 -47 0
-46 -48 0
-47 -48 0
46 47 48 0
-49 -50 0
-49 -51 0
-50 -51 0
49 50 51 0
-52 -53 0
-52 -54 0
-53 -54 0
52 53 54 0
-55 -56 0
-55 -57 0
-56 -57 0
55 56 57 0
-58 -59 0
-58 -60 0
-59 -60 0
58 59 60 0
-61 -62 0
-61 -63 0
-62 -63 0
61 62 63 0
-64 -65 0
-64 -66 0
-65 -66 0
64 65 66 0
-67 -68 0
-67 -69 0
-68 -69 0
67 68 69 0
-70 -71 0
-70 -72 0
-71 -72 0
70 71 72 0
-73 -74 0
-73 -75 0
-74 -75 0
73 74 75 0
-76 -77 0
-76 -78 0
-77 -78 0
76 77 78 0
-79 -80 0
-79 -81 0
-80 -81 0
79 80 81 0
-82 -83 0
-82 -84 0
-83 -84 0
82 83 84 0
-85 -86 0
-85 -87 0
-86 -87 0
85 86 87 0
-88 -89 0
-88 -90 0
-89 -90 0
88 89 90 0
-91 -92 0
-91 -93 0
-92 -93 0
91 92 93 0
-94 -95 0
-94 -96 0
-95 -96 0
94 95 96 0
-97 -98 0
-97 -99 0
-98 -99 0
97 98 99 0
-100 -101 0
-100 -102 0
-101 -102 0
100 101 102 0
-103 -104 0
-103 -105 0
-104 -105 0
103 104 105 0
-106 -107 0
-106 -108 0
-107 -108 0
106 107 108 0
-109 -110 0
-109 -111 0
-110 -111 0
109 110 111 0
-112 -113 0
-112 -114 0
-113 -114 0
112 113 114 0
-115 -116 0
-115 -117 0
-116 -117 0
115 116 117 0
-118 -119 0
-118 -120 0
-119 -120 0
118 119 120 0
-121 -122 0
-121 -123 0
-122 -123 0
121 122 123 0
-124 -125 0
-124 -126 0
-125 -126 0
124 125 126 0
-127 -128 0
-127 -129 0
-128 -129 0
127 128 129 0
-130 -131 0
-130 -132 0
-131 -132 0
130 131 132 0
-133 -134 0
-133 -135 0
-134 -135 0
133 134 135 0
-136 -137 0
-136 -138 0
-137 -138 0
136 137 138 0
-139 -140 0
-139 -141 0
-140 -141 0
139 140 141 0
-142 -143 0
-142 -144 0
-143 -144 0
142 143 144 0
-145 -146 0
-145 -147 0
-146 -147 0
145 146 147 0
-148 -149 0
-148 -150 0
-149 -150 0
148 149 150 0
-88 -1 0
-89 -2 0
-90 -3 0
-94 -1 0
-95 -2 0
-96 -3 0
-106 -1 0
-107 -2 0
-108 -3 0
-52 -4 0
-53 -5 0
-54 -6 0
-67 -4 0
-68 -5 0
-69 -6 0
-100 -4 0
-101 -5 0
-102 -6 0
-109 -4 0
-110 -5 0
-111 -6 0
-52 -7 0
-53 -8 0
-54 -9 0
-76 -7 0
-77 -8 0
-78 -9 0
-79 -7 0
-80 -8 0
-81 -9 0
-121 -7 0
-122 -8 0
-123 -9 0
-130 -7 0
-131 -8 0
-132 -9 0
-106 -10 0
-107 -11 0
-108 -12 0
-139 -10 0
-140 -11 0
-141 -12 0
-145 -10 0
-146 -11 0
-147 -12 0
-67 -13 0
-68 -14 0
-69 -15 0
-76 -13 0
-77 -14 0
-78 -15 0
-82 -13 0
-83 -14 0
-84 -15 0
-97 -13 0
-98 -14 0
-99 -15 0
-130 -13 0
-131 -14 0
-132 -15 0
-142 -13 0
-143 -14 0
-144 -15 0
-52 -16 0
-53 -17 0
-54 -18 0
-76 -16 0
-77 -17 0
-78 -18 0
-85 -16 0
-86 -17 0
-87 -18 0
-112 -16 0
-113 -17 0
-114 -18 0
-139 -16 0
-140 -17 0
-141 -18 0
-145 -16 0
-146 -17 0
-147 -18 0
-91 -19 0
-92 -20 0
-93 -21 0
-94 -19 0
-95 -20 0
-96 -21 0
-112 -19 0
-113 -20 0
-114 -21 0
-124 -19 0
-125 -20 0
-126 -21 0
-148 -19 0
-149 -20 0
-150 -21 0
-61 -22 0
-62 -23 0
-63 -24 0
-67 -22 0
-68 -23 0
-69 -24 0
-79 -22 0
-80 -23 0
-81 -24 0
-127 -22 0
-128 -23 0
-129 -24 0
-142 -22 0
-143 -23 0
-144 -24 0
-148 -22 0
-149 -23 0
-150 -24 0
-64 -25 0
-65 -26 0
-66 -27 0
-58 -28 0
-59 -29 0
-60 -30 0
-67 -28 0
-68 -29 0
-69 -30 0
-79 -28 0
-80 -29 0
-81 -30 0
-88 -28 0
-89 -29 0
-90 -30 0
-103 -28 0
-104 -29 0
-105 -30 0
-112 -28 0
-113 -29 0
-114 -30 0
-115 -28 0
-116 -29 0
-117 -30 0
-127 -28 0
-128 -29 0
-129 -30 0
-91 -31 0
-92 -32 0
-93 -33 0
-94 -31 0
-95 -32 0
-96 -33 0
-103 -31 0
-104 -32 0
-105 -33 0
-112 -31 0
-113 -32 0
-114 -33 0
-97 -34 0
-98 -35 0
-99 -36 0
-55 -37 0
-56 -38 0
-57 -39 0
-73 -37 0
-74 -38 0
-75 -39 0
-91 -37 0
-92 -38 0
-93 -39 0
-121 -37 0
-122 -38 0
-123 -39 0
-127 -37 0
-128 -38 0
-129 -39 0
-133 -37 0
-134 -38 0
-135 -39 0
-64 -40 0
-65 -41 0
-66 -42 0
-97 -40 0
-98 -41 0
-99 -42 0
-115 -40 0
-116 -41 0
-117 -42 0
-73 -43 0
-74 -44 0
-75 -45 0
-94 -43 0
-95 -44 0
-96 -45 0
-115 -43 0
-116 -44 0
-117 -45 0
-124 -43 0
-125 -44 0
-126 -45 0
-148 -43 0
-149 -44 0
-150 -45 0
-52 -46 0
-53 -47 0
-54 -48 0
-73 -46 0
-74 -47 0
-75 -48 0
-79 -46 0
-80 -47 0
-81 -48 0
-106 -46 0
-107 -47 0
-108 -48 0
-127 -46 0
-128 -47 0
-129 -48 0
-142 -46 0
-143 -47 0
-144 -48 0
-70 -49 0
-71 -50 0
-72 -51 0
-88 -49 0
-89 -50 0
-90 -51 0
-124 -49 0
-125 -50 0
-126 -51 0
-136 -49 0
-137 -50 0
-138 -51 0
-142 -49 0
-143 -50 0
-144 -51 0
-148 -49 0
-149 -50 0
-150 -51 0
-106 -52 0
-107 -53 0
-108 -54 0
-139 -52 0
-140 -53 0
-141 -54 0
-148 -52 0
-149 -53 0
-150 -54 0
-103 -55 0
-104 -56 0
-105 -57 0
-124 -55 0
-125 -56 0
-126 -57 0
-106 -58 0
-107 -59 0
-108 -60 0
-121 -61 0
-122 -62 0
-123 -63 0
-139 -61 0
-140 -62 0
-141 -63 0
-136 -64 0
-137 -65 0
-138 -66 0
-115 -67 0
-116 -68 0
-117 -69 0
-124 -67 0
-125 -68 0
-126 -69 0
-133 -67 0
-134 -68 0
-135 -69 0
-109 -70 0
-110 -71 0
-111 -72 0
-133 -70 0
-134 -71 0
-135 -72 0
-136 -70 0
-137 -71 0
-138 -72 0
-145 -70 0
-146 -71 0
-147 -72 0
-109 -73 0
-110 -74 0
-111 -75 0
-115 -73 0
-116 -74 0
-117 -75 0
-118 -73 0
-119 -74 0
-120 -75 0
-148 -73 0
-149 -74 0
-150 -75 0
-145 -76 0
-146 -77 0
-147 -78 0
-106 -79 0
-107 -80 0
-108 -81 0
-127 -82 0
-128 -83 0
-129 -84 0
-124 -85 0
-125 -86 0
-126 -87 0
-115 -88 0
-116 -89 0
-117 -90 0
-133 -88 0
-134 -89 0
-135 -90 0
-139 -88 0
-140 -89 0
-141 -90 0
-145 -88 0
-146 -89 0
-147 -90 0
-106 -91 0
-107 -92 0
-108 -93 0
-118 -91 0
-119 -92 0
-120 -93 0
-121 -91 0
-122 -92 0
-123 -93 0
-136 -91 0
-137 -92 0
-138 -93 0
-124 -97 0
-125 -98 0
-126 -99 0
-136 -97 0
-137 -98 0
-138 -99 0
-109 -100 0
-110 -101 0
-111 -102 0
-112 -100 0
-113 -101 0
-114 -102 0
-133 -100 0
-134 -101 0
-135 -102 0
